c 10x10
p cnf 100 1296
1 2 11 0
-1 -2 11 0
-1 2 -11 0
1 -2 -11 0
1 2 3 12 0
-1 -2 3 12 0
-1 2 -3 12 0
-1 2 3 -12 0
1 -2 -3 12 0
1 -2 3 -12 0
1 2 -3 -12 0
-1 -2 -3 -12 0
2 3 4 13 0
-2 -3 4 13 0
-2 3 -4 13 0
-2 3 4 -13 0
2 -3 -4 13 0
2 -3 4 -13 0
2 3 -4 -13 0
-2 -3 -4 -13 0
3 4 5 14 0
-3 -4 5 14 0
-3 4 -5 14 0
-3 4 5 -14 0
3 -4 -5 14 0
3 -4 5 -14 0
3 4 -5 -14 0
-3 -4 -5 -14 0
4 5 6 15 0
-4 -5 6 15 0
-4 5 -6 15 0
-4 5 6 -15 0
4 -5 -6 15 0
4 -5 6 -15 0
4 5 -6 -15 0
-4 -5 -6 -15 0
5 6 7 16 0
-5 -6 7 16 0
-5 6 -7 16 0
-5 6 7 -16 0
5 -6 -7 16 0
5 -6 7 -16 0
5 6 -7 -16 0
-5 -6 -7 -16 0
6 7 8 17 0
-6 -7 8 17 0
-6 7 -8 17 0
-6 7 8 -17 0
6 -7 -8 17 0
6 -7 8 -17 0
6 7 -8 -17 0
-6 -7 -8 -17 0
7 8 9 18 0
-7 -8 9 18 0
-7 8 -9 18 0
-7 8 9 -18 0
7 -8 -9 18 0
7 -8 9 -18 0
7 8 -9 -18 0
-7 -8 -9 -18 0
8 9 10 19 0
-8 -9 10 19 0
-8 9 -10 19 0
-8 9 10 -19 0
8 -9 -10 19 0
8 -9 10 -19 0
8 9 -10 -19 0
-8 -9 -10 -19 0
9 10 20 0
-9 -10 20 0
-9 10 -20 0
9 -10 -20 0
1 11 12 21 0
-1 -11 12 21 0
-1 11 -12 21 0
-1 11 12 -21 0
1 -11 -12 21 0
1 -11 12 -21 0
1 11 -12 -21 0
-1 -11 -12 -21 0
2 11 12 13 22 0
-2 -11 12 13 22 0
-2 11 -12 13 22 0
-2 11 12 -13 22 0
-2 11 12 13 -22 0
2 -11 -12 13 22 0
2 -11 12 -13 22 0
2 -11 12 13 -22 0
2 11 -12 -13 22 0
2 11 -12 13 -22 0
2 11 12 -13 -22 0
-2 -11 -12 -13 22 0
-2 -11 -12 13 -22 0
-2 -11 12 -13 -22 0
-2 11 -12 -13 -22 0
2 -11 -12 -13 -22 0
3 12 13 14 23 0
-3 -12 13 14 23 0
-3 12 -13 14 23 0
-3 12 13 -14 23 0
-3 12 13 14 -23 0
3 -12 -13 14 23 0
3 -12 13 -14 23 0
3 -12 13 14 -23 0
3 12 -13 -14 23 0
3 12 -13 14 -23 0
3 12 13 -14 -23 0
-3 -12 -13 -14 23 0
-3 -12 -13 14 -23 0
-3 -12 13 -14 -23 0
-3 12 -13 -14 -23 0
3 -12 -13 -14 -23 0
4 13 14 15 24 0
-4 -13 14 15 24 0
-4 13 -14 15 24 0
-4 13 14 -15 24 0
-4 13 14 15 -24 0
4 -13 -14 15 24 0
4 -13 14 -15 24 0
4 -13 14 15 -24 0
4 13 -14 -15 24 0
4 13 -14 15 -24 0
4 13 14 -15 -24 0
-4 -13 -14 -15 24 0
-4 -13 -14 15 -24 0
-4 -13 14 -15 -24 0
-4 13 -14 -15 -24 0
4 -13 -14 -15 -24 0
5 14 15 16 25 0
-5 -14 15 16 25 0
-5 14 -15 16 25 0
-5 14 15 -16 25 0
-5 14 15 16 -25 0
5 -14 -15 16 25 0
5 -14 15 -16 25 0
5 -14 15 16 -25 0
5 14 -15 -16 25 0
5 14 -15 16 -25 0
5 14 15 -16 -25 0
-5 -14 -15 -16 25 0
-5 -14 -15 16 -25 0
-5 -14 15 -16 -25 0
-5 14 -15 -16 -25 0
5 -14 -15 -16 -25 0
6 15 16 17 26 0
-6 -15 16 17 26 0
-6 15 -16 17 26 0
-6 15 16 -17 26 0
-6 15 16 17 -26 0
6 -15 -16 17 26 0
6 -15 16 -17 26 0
6 -15 16 17 -26 0
6 15 -16 -17 26 0
6 15 -16 17 -26 0
6 15 16 -17 -26 0
-6 -15 -16 -17 26 0
-6 -15 -16 17 -26 0
-6 -15 16 -17 -26 0
-6 15 -16 -17 -26 0
6 -15 -16 -17 -26 0
7 16 17 18 27 0
-7 -16 17 18 27 0
-7 16 -17 18 27 0
-7 16 17 -18 27 0
-7 16 17 18 -27 0
7 -16 -17 18 27 0
7 -16 17 -18 27 0
7 -16 17 18 -27 0
7 16 -17 -18 27 0
7 16 -17 18 -27 0
7 16 17 -18 -27 0
-7 -16 -17 -18 27 0
-7 -16 -17 18 -27 0
-7 -16 17 -18 -27 0
-7 16 -17 -18 -27 0
7 -16 -17 -18 -27 0
8 17 18 19 28 0
-8 -17 18 19 28 0
-8 17 -18 19 28 0
-8 17 18 -19 28 0
-8 17 18 19 -28 0
8 -17 -18 19 28 0
8 -17 18 -19 28 0
8 -17 18 19 -28 0
8 17 -18 -19 28 0
8 17 -18 19 -28 0
8 17 18 -19 -28 0
-8 -17 -18 -19 28 0
-8 -17 -18 19 -28 0
-8 -17 18 -19 -28 0
-8 17 -18 -19 -28 0
8 -17 -18 -19 -28 0
9 18 19 20 29 0
-9 -18 19 20 29 0
-9 18 -19 20 29 0
-9 18 19 -20 29 0
-9 18 19 20 -29 0
9 -18 -19 20 29 0
9 -18 19 -20 29 0
9 -18 19 20 -29 0
9 18 -19 -20 29 0
9 18 -19 20 -29 0
9 18 19 -20 -29 0
-9 -18 -19 -20 29 0
-9 -18 -19 20 -29 0
-9 -18 19 -20 -29 0
-9 18 -19 -20 -29 0
9 -18 -19 -20 -29 0
10 19 20 30 0
-10 -19 20 30 0
-10 19 -20 30 0
-10 19 20 -30 0
10 -19 -20 30 0
10 -19 20 -30 0
10 19 -20 -30 0
-10 -19 -20 -30 0
11 21 22 31 0
-11 -21 22 31 0
-11 21 -22 31 0
-11 21 22 -31 0
11 -21 -22 31 0
11 -21 22 -31 0
11 21 -22 -31 0
-11 -21 -22 -31 0
12 21 22 23 32 0
-12 -21 22 23 32 0
-12 21 -22 23 32 0
-12 21 22 -23 32 0
-12 21 22 23 -32 0
12 -21 -22 23 32 0
12 -21 22 -23 32 0
12 -21 22 23 -32 0
12 21 -22 -23 32 0
12 21 -22 23 -32 0
12 21 22 -23 -32 0
-12 -21 -22 -23 32 0
-12 -21 -22 23 -32 0
-12 -21 22 -23 -32 0
-12 21 -22 -23 -32 0
12 -21 -22 -23 -32 0
13 22 23 24 33 0
-13 -22 23 24 33 0
-13 22 -23 24 33 0
-13 22 23 -24 33 0
-13 22 23 24 -33 0
13 -22 -23 24 33 0
13 -22 23 -24 33 0
13 -22 23 24 -33 0
13 22 -23 -24 33 0
13 22 -23 24 -33 0
13 22 23 -24 -33 0
-13 -22 -23 -24 33 0
-13 -22 -23 24 -33 0
-13 -22 23 -24 -33 0
-13 22 -23 -24 -33 0
13 -22 -23 -24 -33 0
14 23 24 25 34 0
-14 -23 24 25 34 0
-14 23 -24 25 34 0
-14 23 24 -25 34 0
-14 23 24 25 -34 0
14 -23 -24 25 34 0
14 -23 24 -25 34 0
14 -23 24 25 -34 0
14 23 -24 -25 34 0
14 23 -24 25 -34 0
14 23 24 -25 -34 0
-14 -23 -24 -25 34 0
-14 -23 -24 25 -34 0
-14 -23 24 -25 -34 0
-14 23 -24 -25 -34 0
14 -23 -24 -25 -34 0
15 24 25 26 35 0
-15 -24 25 26 35 0
-15 24 -25 26 35 0
-15 24 25 -26 35 0
-15 24 25 26 -35 0
15 -24 -25 26 35 0
15 -24 25 -26 35 0
15 -24 25 26 -35 0
15 24 -25 -26 35 0
15 24 -25 26 -35 0
15 24 25 -26 -35 0
-15 -24 -25 -26 35 0
-15 -24 -25 26 -35 0
-15 -24 25 -26 -35 0
-15 24 -25 -26 -35 0
15 -24 -25 -26 -35 0
16 25 26 27 36 0
-16 -25 26 27 36 0
-16 25 -26 27 36 0
-16 25 26 -27 36 0
-16 25 26 27 -36 0
16 -25 -26 27 36 0
16 -25 26 -27 36 0
16 -25 26 27 -36 0
16 25 -26 -27 36 0
16 25 -26 27 -36 0
16 25 26 -27 -36 0
-16 -25 -26 -27 36 0
-16 -25 -26 27 -36 0
-16 -25 26 -27 -36 0
-16 25 -26 -27 -36 0
16 -25 -26 -27 -36 0
17 26 27 28 37 0
-17 -26 27 28 37 0
-17 26 -27 28 37 0
-17 26 27 -28 37 0
-17 26 27 28 -37 0
17 -26 -27 28 37 0
17 -26 27 -28 37 0
17 -26 27 28 -37 0
17 26 -27 -28 37 0
17 26 -27 28 -37 0
17 26 27 -28 -37 0
-17 -26 -27 -28 37 0
-17 -26 -27 28 -37 0
-17 -26 27 -28 -37 0
-17 26 -27 -28 -37 0
17 -26 -27 -28 -37 0
18 27 28 29 38 0
-18 -27 28 29 38 0
-18 27 -28 29 38 0
-18 27 28 -29 38 0
-18 27 28 29 -38 0
18 -27 -28 29 38 0
18 -27 28 -29 38 0
18 -27 28 29 -38 0
18 27 -28 -29 38 0
18 27 -28 29 -38 0
18 27 28 -29 -38 0
-18 -27 -28 -29 38 0
-18 -27 -28 29 -38 0
-18 -27 28 -29 -38 0
-18 27 -28 -29 -38 0
18 -27 -28 -29 -38 0
19 28 29 30 39 0
-19 -28 29 30 39 0
-19 28 -29 30 39 0
-19 28 29 -30 39 0
-19 28 29 30 -39 0
19 -28 -29 30 39 0
19 -28 29 -30 39 0
19 -28 29 30 -39 0
19 28 -29 -30 39 0
19 28 -29 30 -39 0
19 28 29 -30 -39 0
-19 -28 -29 -30 39 0
-19 -28 -29 30 -39 0
-19 -28 29 -30 -39 0
-19 28 -29 -30 -39 0
19 -28 -29 -30 -39 0
20 29 30 40 0
-20 -29 30 40 0
-20 29 -30 40 0
-20 29 30 -40 0
20 -29 -30 40 0
20 -29 30 -40 0
20 29 -30 -40 0
-20 -29 -30 -40 0
21 31 32 41 0
-21 -31 32 41 0
-21 31 -32 41 0
-21 31 32 -41 0
21 -31 -32 41 0
21 -31 32 -41 0
21 31 -32 -41 0
-21 -31 -32 -41 0
22 31 32 33 42 0
-22 -31 32 33 42 0
-22 31 -32 33 42 0
-22 31 32 -33 42 0
-22 31 32 33 -42 0
22 -31 -32 33 42 0
22 -31 32 -33 42 0
22 -31 32 33 -42 0
22 31 -32 -33 42 0
22 31 -32 33 -42 0
22 31 32 -33 -42 0
-22 -31 -32 -33 42 0
-22 -31 -32 33 -42 0
-22 -31 32 -33 -42 0
-22 31 -32 -33 -42 0
22 -31 -32 -33 -42 0
23 32 33 34 43 0
-23 -32 33 34 43 0
-23 32 -33 34 43 0
-23 32 33 -34 43 0
-23 32 33 34 -43 0
23 -32 -33 34 43 0
23 -32 33 -34 43 0
23 -32 33 34 -43 0
23 32 -33 -34 43 0
23 32 -33 34 -43 0
23 32 33 -34 -43 0
-23 -32 -33 -34 43 0
-23 -32 -33 34 -43 0
-23 -32 33 -34 -43 0
-23 32 -33 -34 -43 0
23 -32 -33 -34 -43 0
24 33 34 35 44 0
-24 -33 34 35 44 0
-24 33 -34 35 44 0
-24 33 34 -35 44 0
-24 33 34 35 -44 0
24 -33 -34 35 44 0
24 -33 34 -35 44 0
24 -33 34 35 -44 0
24 33 -34 -35 44 0
24 33 -34 35 -44 0
24 33 34 -35 -44 0
-24 -33 -34 -35 44 0
-24 -33 -34 35 -44 0
-24 -33 34 -35 -44 0
-24 33 -34 -35 -44 0
24 -33 -34 -35 -44 0
25 34 35 36 45 0
-25 -34 35 36 45 0
-25 34 -35 36 45 0
-25 34 35 -36 45 0
-25 34 35 36 -45 0
25 -34 -35 36 45 0
25 -34 35 -36 45 0
25 -34 35 36 -45 0
25 34 -35 -36 45 0
25 34 -35 36 -45 0
25 34 35 -36 -45 0
-25 -34 -35 -36 45 0
-25 -34 -35 36 -45 0
-25 -34 35 -36 -45 0
-25 34 -35 -36 -45 0
25 -34 -35 -36 -45 0
26 35 36 37 46 0
-26 -35 36 37 46 0
-26 35 -36 37 46 0
-26 35 36 -37 46 0
-26 35 36 37 -46 0
26 -35 -36 37 46 0
26 -35 36 -37 46 0
26 -35 36 37 -46 0
26 35 -36 -37 46 0
26 35 -36 37 -46 0
26 35 36 -37 -46 0
-26 -35 -36 -37 46 0
-26 -35 -36 37 -46 0
-26 -35 36 -37 -46 0
-26 35 -36 -37 -46 0
26 -35 -36 -37 -46 0
27 36 37 38 47 0
-27 -36 37 38 47 0
-27 36 -37 38 47 0
-27 36 37 -38 47 0
-27 36 37 38 -47 0
27 -36 -37 38 47 0
27 -36 37 -38 47 0
27 -36 37 38 -47 0
27 36 -37 -38 47 0
27 36 -37 38 -47 0
27 36 37 -38 -47 0
-27 -36 -37 -38 47 0
-27 -36 -37 38 -47 0
-27 -36 37 -38 -47 0
-27 36 -37 -38 -47 0
27 -36 -37 -38 -47 0
28 37 38 39 48 0
-28 -37 38 39 48 0
-28 37 -38 39 48 0
-28 37 38 -39 48 0
-28 37 38 39 -48 0
28 -37 -38 39 48 0
28 -37 38 -39 48 0
28 -37 38 39 -48 0
28 37 -38 -39 48 0
28 37 -38 39 -48 0
28 37 38 -39 -48 0
-28 -37 -38 -39 48 0
-28 -37 -38 39 -48 0
-28 -37 38 -39 -48 0
-28 37 -38 -39 -48 0
28 -37 -38 -39 -48 0
29 38 39 40 49 0
-29 -38 39 40 49 0
-29 38 -39 40 49 0
-29 38 39 -40 49 0
-29 38 39 40 -49 0
29 -38 -39 40 49 0
29 -38 39 -40 49 0
29 -38 39 40 -49 0
29 38 -39 -40 49 0
29 38 -39 40 -49 0
29 38 39 -40 -49 0
-29 -38 -39 -40 49 0
-29 -38 -39 40 -49 0
-29 -38 39 -40 -49 0
-29 38 -39 -40 -49 0
29 -38 -39 -40 -49 0
30 39 40 50 0
-30 -39 40 50 0
-30 39 -40 50 0
-30 39 40 -50 0
30 -39 -40 50 0
30 -39 40 -50 0
30 39 -40 -50 0
-30 -39 -40 -50 0
31 41 42 51 0
-31 -41 42 51 0
-31 41 -42 51 0
-31 41 42 -51 0
31 -41 -42 51 0
31 -41 42 -51 0
31 41 -42 -51 0
-31 -41 -42 -51 0
32 41 42 43 52 0
-32 -41 42 43 52 0
-32 41 -42 43 52 0
-32 41 42 -43 52 0
-32 41 42 43 -52 0
32 -41 -42 43 52 0
32 -41 42 -43 52 0
32 -41 42 43 -52 0
32 41 -42 -43 52 0
32 41 -42 43 -52 0
32 41 42 -43 -52 0
-32 -41 -42 -43 52 0
-32 -41 -42 43 -52 0
-32 -41 42 -43 -52 0
-32 41 -42 -43 -52 0
32 -41 -42 -43 -52 0
33 42 43 44 53 0
-33 -42 43 44 53 0
-33 42 -43 44 53 0
-33 42 43 -44 53 0
-33 42 43 44 -53 0
33 -42 -43 44 53 0
33 -42 43 -44 53 0
33 -42 43 44 -53 0
33 42 -43 -44 53 0
33 42 -43 44 -53 0
33 42 43 -44 -53 0
-33 -42 -43 -44 53 0
-33 -42 -43 44 -53 0
-33 -42 43 -44 -53 0
-33 42 -43 -44 -53 0
33 -42 -43 -44 -53 0
34 43 44 45 54 0
-34 -43 44 45 54 0
-34 43 -44 45 54 0
-34 43 44 -45 54 0
-34 43 44 45 -54 0
34 -43 -44 45 54 0
34 -43 44 -45 54 0
34 -43 44 45 -54 0
34 43 -44 -45 54 0
34 43 -44 45 -54 0
34 43 44 -45 -54 0
-34 -43 -44 -45 54 0
-34 -43 -44 45 -54 0
-34 -43 44 -45 -54 0
-34 43 -44 -45 -54 0
34 -43 -44 -45 -54 0
35 44 45 46 55 0
-35 -44 45 46 55 0
-35 44 -45 46 55 0
-35 44 45 -46 55 0
-35 44 45 46 -55 0
35 -44 -45 46 55 0
35 -44 45 -46 55 0
35 -44 45 46 -55 0
35 44 -45 -46 55 0
35 44 -45 46 -55 0
35 44 45 -46 -55 0
-35 -44 -45 -46 55 0
-35 -44 -45 46 -55 0
-35 -44 45 -46 -55 0
-35 44 -45 -46 -55 0
35 -44 -45 -46 -55 0
36 45 46 47 56 0
-36 -45 46 47 56 0
-36 45 -46 47 56 0
-36 45 46 -47 56 0
-36 45 46 47 -56 0
36 -45 -46 47 56 0
36 -45 46 -47 56 0
36 -45 46 47 -56 0
36 45 -46 -47 56 0
36 45 -46 47 -56 0
36 45 46 -47 -56 0
-36 -45 -46 -47 56 0
-36 -45 -46 47 -56 0
-36 -45 46 -47 -56 0
-36 45 -46 -47 -56 0
36 -45 -46 -47 -56 0
37 46 47 48 57 0
-37 -46 47 48 57 0
-37 46 -47 48 57 0
-37 46 47 -48 57 0
-37 46 47 48 -57 0
37 -46 -47 48 57 0
37 -46 47 -48 57 0
37 -46 47 48 -57 0
37 46 -47 -48 57 0
37 46 -47 48 -57 0
37 46 47 -48 -57 0
-37 -46 -47 -48 57 0
-37 -46 -47 48 -57 0
-37 -46 47 -48 -57 0
-37 46 -47 -48 -57 0
37 -46 -47 -48 -57 0
38 47 48 49 58 0
-38 -47 48 49 58 0
-38 47 -48 49 58 0
-38 47 48 -49 58 0
-38 47 48 49 -58 0
38 -47 -48 49 58 0
38 -47 48 -49 58 0
38 -47 48 49 -58 0
38 47 -48 -49 58 0
38 47 -48 49 -58 0
38 47 48 -49 -58 0
-38 -47 -48 -49 58 0
-38 -47 -48 49 -58 0
-38 -47 48 -49 -58 0
-38 47 -48 -49 -58 0
38 -47 -48 -49 -58 0
39 48 49 50 59 0
-39 -48 49 50 59 0
-39 48 -49 50 59 0
-39 48 49 -50 59 0
-39 48 49 50 -59 0
39 -48 -49 50 59 0
39 -48 49 -50 59 0
39 -48 49 50 -59 0
39 48 -49 -50 59 0
39 48 -49 50 -59 0
39 48 49 -50 -59 0
-39 -48 -49 -50 59 0
-39 -48 -49 50 -59 0
-39 -48 49 -50 -59 0
-39 48 -49 -50 -59 0
39 -48 -49 -50 -59 0
40 49 50 60 0
-40 -49 50 60 0
-40 49 -50 60 0
-40 49 50 -60 0
40 -49 -50 60 0
40 -49 50 -60 0
40 49 -50 -60 0
-40 -49 -50 -60 0
41 51 52 61 0
-41 -51 52 61 0
-41 51 -52 61 0
-41 51 52 -61 0
41 -51 -52 61 0
41 -51 52 -61 0
41 51 -52 -61 0
-41 -51 -52 -61 0
42 51 52 53 62 0
-42 -51 52 53 62 0
-42 51 -52 53 62 0
-42 51 52 -53 62 0
-42 51 52 53 -62 0
42 -51 -52 53 62 0
42 -51 52 -53 62 0
42 -51 52 53 -62 0
42 51 -52 -53 62 0
42 51 -52 53 -62 0
42 51 52 -53 -62 0
-42 -51 -52 -53 62 0
-42 -51 -52 53 -62 0
-42 -51 52 -53 -62 0
-42 51 -52 -53 -62 0
42 -51 -52 -53 -62 0
43 52 53 54 63 0
-43 -52 53 54 63 0
-43 52 -53 54 63 0
-43 52 53 -54 63 0
-43 52 53 54 -63 0
43 -52 -53 54 63 0
43 -52 53 -54 63 0
43 -52 53 54 -63 0
43 52 -53 -54 63 0
43 52 -53 54 -63 0
43 52 53 -54 -63 0
-43 -52 -53 -54 63 0
-43 -52 -53 54 -63 0
-43 -52 53 -54 -63 0
-43 52 -53 -54 -63 0
43 -52 -53 -54 -63 0
44 53 54 55 64 0
-44 -53 54 55 64 0
-44 53 -54 55 64 0
-44 53 54 -55 64 0
-44 53 54 55 -64 0
44 -53 -54 55 64 0
44 -53 54 -55 64 0
44 -53 54 55 -64 0
44 53 -54 -55 64 0
44 53 -54 55 -64 0
44 53 54 -55 -64 0
-44 -53 -54 -55 64 0
-44 -53 -54 55 -64 0
-44 -53 54 -55 -64 0
-44 53 -54 -55 -64 0
44 -53 -54 -55 -64 0
45 54 55 56 65 0
-45 -54 55 56 65 0
-45 54 -55 56 65 0
-45 54 55 -56 65 0
-45 54 55 56 -65 0
45 -54 -55 56 65 0
45 -54 55 -56 65 0
45 -54 55 56 -65 0
45 54 -55 -56 65 0
45 54 -55 56 -65 0
45 54 55 -56 -65 0
-45 -54 -55 -56 65 0
-45 -54 -55 56 -65 0
-45 -54 55 -56 -65 0
-45 54 -55 -56 -65 0
45 -54 -55 -56 -65 0
46 55 56 57 66 0
-46 -55 56 57 66 0
-46 55 -56 57 66 0
-46 55 56 -57 66 0
-46 55 56 57 -66 0
46 -55 -56 57 66 0
46 -55 56 -57 66 0
46 -55 56 57 -66 0
46 55 -56 -57 66 0
46 55 -56 57 -66 0
46 55 56 -57 -66 0
-46 -55 -56 -57 66 0
-46 -55 -56 57 -66 0
-46 -55 56 -57 -66 0
-46 55 -56 -57 -66 0
46 -55 -56 -57 -66 0
47 56 57 58 67 0
-47 -56 57 58 67 0
-47 56 -57 58 67 0
-47 56 57 -58 67 0
-47 56 57 58 -67 0
47 -56 -57 58 67 0
47 -56 57 -58 67 0
47 -56 57 58 -67 0
47 56 -57 -58 67 0
47 56 -57 58 -67 0
47 56 57 -58 -67 0
-47 -56 -57 -58 67 0
-47 -56 -57 58 -67 0
-47 -56 57 -58 -67 0
-47 56 -57 -58 -67 0
47 -56 -57 -58 -67 0
48 57 58 59 68 0
-48 -57 58 59 68 0
-48 57 -58 59 68 0
-48 57 58 -59 68 0
-48 57 58 59 -68 0
48 -57 -58 59 68 0
48 -57 58 -59 68 0
48 -57 58 59 -68 0
48 57 -58 -59 68 0
48 57 -58 59 -68 0
48 57 58 -59 -68 0
-48 -57 -58 -59 68 0
-48 -57 -58 59 -68 0
-48 -57 58 -59 -68 0
-48 57 -58 -59 -68 0
48 -57 -58 -59 -68 0
49 58 59 60 69 0
-49 -58 59 60 69 0
-49 58 -59 60 69 0
-49 58 59 -60 69 0
-49 58 59 60 -69 0
49 -58 -59 60 69 0
49 -58 59 -60 69 0
49 -58 59 60 -69 0
49 58 -59 -60 69 0
49 58 -59 60 -69 0
49 58 59 -60 -69 0
-49 -58 -59 -60 69 0
-49 -58 -59 60 -69 0
-49 -58 59 -60 -69 0
-49 58 -59 -60 -69 0
49 -58 -59 -60 -69 0
50 59 60 70 0
-50 -59 60 70 0
-50 59 -60 70 0
-50 59 60 -70 0
50 -59 -60 70 0
50 -59 60 -70 0
50 59 -60 -70 0
-50 -59 -60 -70 0
51 61 62 71 0
-51 -61 62 71 0
-51 61 -62 71 0
-51 61 62 -71 0
51 -61 -62 71 0
51 -61 62 -71 0
51 61 -62 -71 0
-51 -61 -62 -71 0
52 61 62 63 72 0
-52 -61 62 63 72 0
-52 61 -62 63 72 0
-52 61 62 -63 72 0
-52 61 62 63 -72 0
52 -61 -62 63 72 0
52 -61 62 -63 72 0
52 -61 62 63 -72 0
52 61 -62 -63 72 0
52 61 -62 63 -72 0
52 61 62 -63 -72 0
-52 -61 -62 -63 72 0
-52 -61 -62 63 -72 0
-52 -61 62 -63 -72 0
-52 61 -62 -63 -72 0
52 -61 -62 -63 -72 0
53 62 63 64 73 0
-53 -62 63 64 73 0
-53 62 -63 64 73 0
-53 62 63 -64 73 0
-53 62 63 64 -73 0
53 -62 -63 64 73 0
53 -62 63 -64 73 0
53 -62 63 64 -73 0
53 62 -63 -64 73 0
53 62 -63 64 -73 0
53 62 63 -64 -73 0
-53 -62 -63 -64 73 0
-53 -62 -63 64 -73 0
-53 -62 63 -64 -73 0
-53 62 -63 -64 -73 0
53 -62 -63 -64 -73 0
54 63 64 65 74 0
-54 -63 64 65 74 0
-54 63 -64 65 74 0
-54 63 64 -65 74 0
-54 63 64 65 -74 0
54 -63 -64 65 74 0
54 -63 64 -65 74 0
54 -63 64 65 -74 0
54 63 -64 -65 74 0
54 63 -64 65 -74 0
54 63 64 -65 -74 0
-54 -63 -64 -65 74 0
-54 -63 -64 65 -74 0
-54 -63 64 -65 -74 0
-54 63 -64 -65 -74 0
54 -63 -64 -65 -74 0
55 64 65 66 75 0
-55 -64 65 66 75 0
-55 64 -65 66 75 0
-55 64 65 -66 75 0
-55 64 65 66 -75 0
55 -64 -65 66 75 0
55 -64 65 -66 75 0
55 -64 65 66 -75 0
55 64 -65 -66 75 0
55 64 -65 66 -75 0
55 64 65 -66 -75 0
-55 -64 -65 -66 75 0
-55 -64 -65 66 -75 0
-55 -64 65 -66 -75 0
-55 64 -65 -66 -75 0
55 -64 -65 -66 -75 0
56 65 66 67 76 0
-56 -65 66 67 76 0
-56 65 -66 67 76 0
-56 65 66 -67 76 0
-56 65 66 67 -76 0
56 -65 -66 67 76 0
56 -65 66 -67 76 0
56 -65 66 67 -76 0
56 65 -66 -67 76 0
56 65 -66 67 -76 0
56 65 66 -67 -76 0
-56 -65 -66 -67 76 0
-56 -65 -66 67 -76 0
-56 -65 66 -67 -76 0
-56 65 -66 -67 -76 0
56 -65 -66 -67 -76 0
57 66 67 68 77 0
-57 -66 67 68 77 0
-57 66 -67 68 77 0
-57 66 67 -68 77 0
-57 66 67 68 -77 0
57 -66 -67 68 77 0
57 -66 67 -68 77 0
57 -66 67 68 -77 0
57 66 -67 -68 77 0
57 66 -67 68 -77 0
57 66 67 -68 -77 0
-57 -66 -67 -68 77 0
-57 -66 -67 68 -77 0
-57 -66 67 -68 -77 0
-57 66 -67 -68 -77 0
57 -66 -67 -68 -77 0
58 67 68 69 78 0
-58 -67 68 69 78 0
-58 67 -68 69 78 0
-58 67 68 -69 78 0
-58 67 68 69 -78 0
58 -67 -68 69 78 0
58 -67 68 -69 78 0
58 -67 68 69 -78 0
58 67 -68 -69 78 0
58 67 -68 69 -78 0
58 67 68 -69 -78 0
-58 -67 -68 -69 78 0
-58 -67 -68 69 -78 0
-58 -67 68 -69 -78 0
-58 67 -68 -69 -78 0
58 -67 -68 -69 -78 0
59 68 69 70 79 0
-59 -68 69 70 79 0
-59 68 -69 70 79 0
-59 68 69 -70 79 0
-59 68 69 70 -79 0
59 -68 -69 70 79 0
59 -68 69 -70 79 0
59 -68 69 70 -79 0
59 68 -69 -70 79 0
59 68 -69 70 -79 0
59 68 69 -70 -79 0
-59 -68 -69 -70 79 0
-59 -68 -69 70 -79 0
-59 -68 69 -70 -79 0
-59 68 -69 -70 -79 0
59 -68 -69 -70 -79 0
60 69 70 80 0
-60 -69 70 80 0
-60 69 -70 80 0
-60 69 70 -80 0
60 -69 -70 80 0
60 -69 70 -80 0
60 69 -70 -80 0
-60 -69 -70 -80 0
61 71 72 81 0
-61 -71 72 81 0
-61 71 -72 81 0
-61 71 72 -81 0
61 -71 -72 81 0
61 -71 72 -81 0
61 71 -72 -81 0
-61 -71 -72 -81 0
62 71 72 73 82 0
-62 -71 72 73 82 0
-62 71 -72 73 82 0
-62 71 72 -73 82 0
-62 71 72 73 -82 0
62 -71 -72 73 82 0
62 -71 72 -73 82 0
62 -71 72 73 -82 0
62 71 -72 -73 82 0
62 71 -72 73 -82 0
62 71 72 -73 -82 0
-62 -71 -72 -73 82 0
-62 -71 -72 73 -82 0
-62 -71 72 -73 -82 0
-62 71 -72 -73 -82 0
62 -71 -72 -73 -82 0
63 72 73 74 83 0
-63 -72 73 74 83 0
-63 72 -73 74 83 0
-63 72 73 -74 83 0
-63 72 73 74 -83 0
63 -72 -73 74 83 0
63 -72 73 -74 83 0
63 -72 73 74 -83 0
63 72 -73 -74 83 0
63 72 -73 74 -83 0
63 72 73 -74 -83 0
-63 -72 -73 -74 83 0
-63 -72 -73 74 -83 0
-63 -72 73 -74 -83 0
-63 72 -73 -74 -83 0
63 -72 -73 -74 -83 0
64 73 74 75 84 0
-64 -73 74 75 84 0
-64 73 -74 75 84 0
-64 73 74 -75 84 0
-64 73 74 75 -84 0
64 -73 -74 75 84 0
64 -73 74 -75 84 0
64 -73 74 75 -84 0
64 73 -74 -75 84 0
64 73 -74 75 -84 0
64 73 74 -75 -84 0
-64 -73 -74 -75 84 0
-64 -73 -74 75 -84 0
-64 -73 74 -75 -84 0
-64 73 -74 -75 -84 0
64 -73 -74 -75 -84 0
65 74 75 76 85 0
-65 -74 75 76 85 0
-65 74 -75 76 85 0
-65 74 75 -76 85 0
-65 74 75 76 -85 0
65 -74 -75 76 85 0
65 -74 75 -76 85 0
65 -74 75 76 -85 0
65 74 -75 -76 85 0
65 74 -75 76 -85 0
65 74 75 -76 -85 0
-65 -74 -75 -76 85 0
-65 -74 -75 76 -85 0
-65 -74 75 -76 -85 0
-65 74 -75 -76 -85 0
65 -74 -75 -76 -85 0
66 75 76 77 86 0
-66 -75 76 77 86 0
-66 75 -76 77 86 0
-66 75 76 -77 86 0
-66 75 76 77 -86 0
66 -75 -76 77 86 0
66 -75 76 -77 86 0
66 -75 76 77 -86 0
66 75 -76 -77 86 0
66 75 -76 77 -86 0
66 75 76 -77 -86 0
-66 -75 -76 -77 86 0
-66 -75 -76 77 -86 0
-66 -75 76 -77 -86 0
-66 75 -76 -77 -86 0
66 -75 -76 -77 -86 0
67 76 77 78 87 0
-67 -76 77 78 87 0
-67 76 -77 78 87 0
-67 76 77 -78 87 0
-67 76 77 78 -87 0
67 -76 -77 78 87 0
67 -76 77 -78 87 0
67 -76 77 78 -87 0
67 76 -77 -78 87 0
67 76 -77 78 -87 0
67 76 77 -78 -87 0
-67 -76 -77 -78 87 0
-67 -76 -77 78 -87 0
-67 -76 77 -78 -87 0
-67 76 -77 -78 -87 0
67 -76 -77 -78 -87 0
68 77 78 79 88 0
-68 -77 78 79 88 0
-68 77 -78 79 88 0
-68 77 78 -79 88 0
-68 77 78 79 -88 0
68 -77 -78 79 88 0
68 -77 78 -79 88 0
68 -77 78 79 -88 0
68 77 -78 -79 88 0
68 77 -78 79 -88 0
68 77 78 -79 -88 0
-68 -77 -78 -79 88 0
-68 -77 -78 79 -88 0
-68 -77 78 -79 -88 0
-68 77 -78 -79 -88 0
68 -77 -78 -79 -88 0
69 78 79 80 89 0
-69 -78 79 80 89 0
-69 78 -79 80 89 0
-69 78 79 -80 89 0
-69 78 79 80 -89 0
69 -78 -79 80 89 0
69 -78 79 -80 89 0
69 -78 79 80 -89 0
69 78 -79 -80 89 0
69 78 -79 80 -89 0
69 78 79 -80 -89 0
-69 -78 -79 -80 89 0
-69 -78 -79 80 -89 0
-69 -78 79 -80 -89 0
-69 78 -79 -80 -89 0
69 -78 -79 -80 -89 0
70 79 80 90 0
-70 -79 80 90 0
-70 79 -80 90 0
-70 79 80 -90 0
70 -79 -80 90 0
70 -79 80 -90 0
70 79 -80 -90 0
-70 -79 -80 -90 0
71 81 82 91 0
-71 -81 82 91 0
-71 81 -82 91 0
-71 81 82 -91 0
71 -81 -82 91 0
71 -81 82 -91 0
71 81 -82 -91 0
-71 -81 -82 -91 0
72 81 82 83 92 0
-72 -81 82 83 92 0
-72 81 -82 83 92 0
-72 81 82 -83 92 0
-72 81 82 83 -92 0
72 -81 -82 83 92 0
72 -81 82 -83 92 0
72 -81 82 83 -92 0
72 81 -82 -83 92 0
72 81 -82 83 -92 0
72 81 82 -83 -92 0
-72 -81 -82 -83 92 0
-72 -81 -82 83 -92 0
-72 -81 82 -83 -92 0
-72 81 -82 -83 -92 0
72 -81 -82 -83 -92 0
73 82 83 84 93 0
-73 -82 83 84 93 0
-73 82 -83 84 93 0
-73 82 83 -84 93 0
-73 82 83 84 -93 0
73 -82 -83 84 93 0
73 -82 83 -84 93 0
73 -82 83 84 -93 0
73 82 -83 -84 93 0
73 82 -83 84 -93 0
73 82 83 -84 -93 0
-73 -82 -83 -84 93 0
-73 -82 -83 84 -93 0
-73 -82 83 -84 -93 0
-73 82 -83 -84 -93 0
73 -82 -83 -84 -93 0
74 83 84 85 94 0
-74 -83 84 85 94 0
-74 83 -84 85 94 0
-74 83 84 -85 94 0
-74 83 84 85 -94 0
74 -83 -84 85 94 0
74 -83 84 -85 94 0
74 -83 84 85 -94 0
74 83 -84 -85 94 0
74 83 -84 85 -94 0
74 83 84 -85 -94 0
-74 -83 -84 -85 94 0
-74 -83 -84 85 -94 0
-74 -83 84 -85 -94 0
-74 83 -84 -85 -94 0
74 -83 -84 -85 -94 0
75 84 85 86 95 0
-75 -84 85 86 95 0
-75 84 -85 86 95 0
-75 84 85 -86 95 0
-75 84 85 86 -95 0
75 -84 -85 86 95 0
75 -84 85 -86 95 0
75 -84 85 86 -95 0
75 84 -85 -86 95 0
75 84 -85 86 -95 0
75 84 85 -86 -95 0
-75 -84 -85 -86 95 0
-75 -84 -85 86 -95 0
-75 -84 85 -86 -95 0
-75 84 -85 -86 -95 0
75 -84 -85 -86 -95 0
76 85 86 87 96 0
-76 -85 86 87 96 0
-76 85 -86 87 96 0
-76 85 86 -87 96 0
-76 85 86 87 -96 0
76 -85 -86 87 96 0
76 -85 86 -87 96 0
76 -85 86 87 -96 0
76 85 -86 -87 96 0
76 85 -86 87 -96 0
76 85 86 -87 -96 0
-76 -85 -86 -87 96 0
-76 -85 -86 87 -96 0
-76 -85 86 -87 -96 0
-76 85 -86 -87 -96 0
76 -85 -86 -87 -96 0
77 86 87 88 97 0
-77 -86 87 88 97 0
-77 86 -87 88 97 0
-77 86 87 -88 97 0
-77 86 87 88 -97 0
77 -86 -87 88 97 0
77 -86 87 -88 97 0
77 -86 87 88 -97 0
77 86 -87 -88 97 0
77 86 -87 88 -97 0
77 86 87 -88 -97 0
-77 -86 -87 -88 97 0
-77 -86 -87 88 -97 0
-77 -86 87 -88 -97 0
-77 86 -87 -88 -97 0
77 -86 -87 -88 -97 0
78 87 88 89 98 0
-78 -87 88 89 98 0
-78 87 -88 89 98 0
-78 87 88 -89 98 0
-78 87 88 89 -98 0
78 -87 -88 89 98 0
78 -87 88 -89 98 0
78 -87 88 89 -98 0
78 87 -88 -89 98 0
78 87 -88 89 -98 0
78 87 88 -89 -98 0
-78 -87 -88 -89 98 0
-78 -87 -88 89 -98 0
-78 -87 88 -89 -98 0
-78 87 -88 -89 -98 0
78 -87 -88 -89 -98 0
79 88 89 90 99 0
-79 -88 89 90 99 0
-79 88 -89 90 99 0
-79 88 89 -90 99 0
-79 88 89 90 -99 0
79 -88 -89 90 99 0
79 -88 89 -90 99 0
79 -88 89 90 -99 0
79 88 -89 -90 99 0
79 88 -89 90 -99 0
79 88 89 -90 -99 0
-79 -88 -89 -90 99 0
-79 -88 -89 90 -99 0
-79 -88 89 -90 -99 0
-79 88 -89 -90 -99 0
79 -88 -89 -90 -99 0
80 89 90 100 0
-80 -89 90 100 0
-80 89 -90 100 0
-80 89 90 -100 0
80 -89 -90 100 0
80 -89 90 -100 0
80 89 -90 -100 0
-80 -89 -90 -100 0
81 91 92 0
-81 -91 92 0
-81 91 -92 0
81 -91 -92 0
82 91 92 93 0
-82 -91 92 93 0
-82 91 -92 93 0
-82 91 92 -93 0
82 -91 -92 93 0
82 -91 92 -93 0
82 91 -92 -93 0
-82 -91 -92 -93 0
83 92 93 94 0
-83 -92 93 94 0
-83 92 -93 94 0
-83 92 93 -94 0
83 -92 -93 94 0
83 -92 93 -94 0
83 92 -93 -94 0
-83 -92 -93 -94 0
84 93 94 95 0
-84 -93 94 95 0
-84 93 -94 95 0
-84 93 94 -95 0
84 -93 -94 95 0
84 -93 94 -95 0
84 93 -94 -95 0
-84 -93 -94 -95 0
85 94 95 96 0
-85 -94 95 96 0
-85 94 -95 96 0
-85 94 95 -96 0
85 -94 -95 96 0
85 -94 95 -96 0
85 94 -95 -96 0
-85 -94 -95 -96 0
86 95 96 97 0
-86 -95 96 97 0
-86 95 -96 97 0
-86 95 96 -97 0
86 -95 -96 97 0
86 -95 96 -97 0
86 95 -96 -97 0
-86 -95 -96 -97 0
87 96 97 98 0
-87 -96 97 98 0
-87 96 -97 98 0
-87 96 97 -98 0
87 -96 -97 98 0
87 -96 97 -98 0
87 96 -97 -98 0
-87 -96 -97 -98 0
88 97 98 99 0
-88 -97 98 99 0
-88 97 -98 99 0
-88 97 98 -99 0
88 -97 -98 99 0
88 -97 98 -99 0
88 97 -98 -99 0
-88 -97 -98 -99 0
89 98 99 100 0
-89 -98 99 100 0
-89 98 -99 100 0
-89 98 99 -100 0
89 -98 -99 100 0
89 -98 99 -100 0
89 98 -99 -100 0
-89 -98 -99 -100 0
90 99 100 0
-90 -99 100 0
-90 99 -100 0
90 -99 -100 0
